/*********************************************
 * OPL 12.6.0.0 Data
 * Author: Adrian Rodriguez Bazaga, Pau Rodriguez Esmerats
 * Creation Date: 06/12/2017 at 23:03:06
 *********************************************/

nNurses=258;
maxConsec=2;
maxPresence=7;
maxHours=5;
minHours=1;
hours=24;
demand= [37 35 58 57 35 58 57 38 41 23 7 8 8 9 11 6 8 6 4 1 35 73 41 52  ];
